% From JaCoP's nonogramRepository/data128.nin
 rows = 25;
 row_rule_len = 3;
 row_rules = array2d(1..rows, 1..row_rule_len, 
[
 0,0,1,
 0,0,2,
 0,0,2,
 0,0,3,
 0,4,1,
 0,4,2,
 0,4,2,
 5,2,2,
 5,2,3,
 6,2,3,
 0,7,7,
 0,9,7,
 0,0,15,
 0,0,14,
 0,0,11,
 0,0,9,
 0,0,10,
 0,0,11,
 0,2,9,
 0,4,7,
 0,0,6,
 0,0,6,
 0,0,8,
 0,0,9,
 0,0,11
]);

 cols = 25;
 col_rule_len = 3;
 col_rules = array2d(1..cols, 1..col_rule_len, 
[
 0,0,3,
 0,0,6,
 0,0,9,
 0,10,3,
 0,12,4,
 0,16,1,
 0,4,10,
 0,2,8,
 0,0,8,
 0,0,8,
 0,0,10,
 0,0,12,
 0,0,14,
 0,0,14,
 0,6,7,
 0,6,6,
 2,2,4,
 2,1,3,
 2,2,3,
 2,1,2,
 0,2,2,
 0,1,1,
 0,2,1,
 0,1,1,
 0,0,1
]);

